Minimize
  - 21 y_0 - 11 y_1 - 18 y_2 - 14 y_3 - 18 y_4 - 18 y_5 - 19 y_7 - 21 y_8
   - 18 y_9 + 57 x_0_1 + 25 x_0_2 + 36 x_0_3 + 11 x_0_4 + 14 x_0_5
   + 83 x_0_6 + 58 x_0_8 + 70 x_0_9 + 59 x_1_2 + 52 x_1_3 + 52 x_1_4
   + 49 x_1_7 + 30 x_1_9 + 14 x_2_3 + 16 x_2_4 + 12 x_2_5 + 28 x_2_7
   + 74 x_2_8 + 80 x_2_9 + 56 x_3_6 + 36 x_3_7 + 75 x_3_8 + 77 x_3_9
   + 4 x_4_5 + 74 x_4_6 + 69 x_4_9 + 72 x_5_6 + 63 x_5_8 + 78 x_6_7
   + 71 x_6_9 + 22 x_8_9 + 22 x_8_9 + 22 x_8_9 + 22 x_8_9 + 22 x_8_9
   + 22 x_8_9 + 22 x_8_9 + 22 x_8_9 + 22 x_8_9 + 22 x_8_9 + 22 x_8_9
   + 22 x_8_9 + 22 x_8_9 + 22 x_8_9 + 22 x_8_9 + 22 x_8_9 + 22 x_8_9
   + 22 x_8_9 + 22 x_8_9 + 22 x_8_9 + 22 x_8_9 + 22 x_8_9 + 22 x_8_9
   + 22 x_8_9 + 22 x_8_9 + 22 x_8_9 + 22 x_8_9 + 22 x_8_9 + 22 x_8_9
   + 22 x_8_9 + 22 x_8_9 + 22 x_8_9 + 22 x_8_9 + 22 x_8_9 + 22 x_8_9
   + 22 x_8_9 + 22 x_8_9 + 22 x_8_9 + 22 x_8_9 + 22 x_8_9 + 22 x_8_9
   + 22 x_8_9 + 22 x_8_9 + 22 x_8_9 + 22 x_8_9 + 22 x_8_9 + 22 x_8_9
   + 22 x_8_9 + 22 x_8_9 + 22 x_8_9 + 22 x_8_9 + 22 x_8_9 + 22 x_8_9
   + 22 x_8_9 + 22 x_8_9 + 22 x_8_9 + 22 x_8_9 + 22 x_8_9 + 22 x_8_9
   + 22 x_8_9 + 22 x_8_9 + 22 x_8_9 + 22 x_8_9 + 22 x_8_9 + 22 x_8_9
   + 22 x_8_9 + 22 x_8_9 + 22 x_8_9 + 22 x_8_9 + 22 x_8_9 + 22 x_8_9
   + 22 x_8_9 + 22 x_8_9 + 22 x_8_9 + 22 x_8_9 + 22 x_8_9 + 22 x_8_9
   + 22 x_8_9 + 22 x_8_9 + 22 x_8_9 + 22 x_8_9 + 22 x_8_9 + 22 x_8_9
   + 22 x_8_9 + 22 x_8_9 + 22 x_8_9 + 22 x_8_9 + 22 x_8_9 + 22 x_8_9
   + 22 x_8_9 + 22 x_8_9 + 22 x_8_9 + 22 x_8_9 + 22 x_8_9 + 22 x_8_9
   + 22 x_8_9 + 22 x_8_9 + 22 x_8_9 + 22 x_8_9 + 22 x_8_9 + 22 x_8_9
   + 22 x_8_9 + 22 x_8_9 + 22 x_8_9 + 22 x_8_9 + 22 x_8_9 + 22 x_8_9
   + 22 x_8_9 + 22 x_8_9 + 22 x_8_9 + 22 x_8_9 + 22 x_8_9 + 22 x_8_9
   + 22 x_8_9 + 22 x_8_9 + 22 x_8_9 + 22 x_8_9 + 22 x_8_9 + 22 x_8_9
   + 22 x_8_9 + 22 x_8_9 + 22 x_8_9 + 22 x_8_9 + 22 x_8_9 + 22 x_8_9
   + 22 x_8_9 + 22 x_8_9 + 22 x_8_9 + 22 x_8_9 + 22 x_8_9 + 22 x_8_9
   + 22 x_8_9 + 22 x_8_9 + 22 x_8_9 + 22 x_8_9 + 22 x_8_9 + 22 x_8_9
   + 22 x_8_9 + 22 x_8_9 + 22 x_8_9 + 22 x_8_9 + 22 x_8_9 + 22 x_8_9
   + 22 x_8_9 + 22 x_8_9 + 22 x_8_9 + 22 x_8_9 + 22 x_8_9 + 22 x_8_9
   + 22 x_8_9 + 22 x_8_9 + 22 x_8_9 + 22 x_8_9 + 22 x_8_9 + 22 x_8_9
   + 22 x_8_9 + 22 x_8_9 + 22 x_8_9 + 22 x_8_9 + 22 x_8_9 + 22 x_8_9
   + 22 x_8_9 + 22 x_8_9 + 22 x_8_9 + 22 x_8_9 + 22 x_8_9 + 22 x_8_9
   + 22 x_8_9 + 22 x_8_9 + 22 x_8_9 + 22 x_8_9 + 22 x_8_9 + 22 x_8_9
   + 22 x_8_9 + 22 x_8_9 + 22 x_8_9 + 22 x_8_9 + 22 x_8_9 + 22 x_8_9
   + 22 x_8_9 + 22 x_8_9 + 22 x_8_9 + 22 x_8_9 + 22 x_8_9 + 22 x_8_9
   + 22 x_8_9 + 22 x_8_9 + 22 x_8_9 + 22 x_8_9 + 22 x_8_9 + 22 x_8_9
   + 22 x_8_9 + 22 x_8_9 + 22 x_8_9 + 22 x_8_9 + 22 x_8_9 + 22 x_8_9
   + 22 x_8_9 + 22 x_8_9 + 22 x_8_9 + 22 x_8_9 + 22 x_8_9 + 22 x_8_9
   + 22 x_8_9 + 22 x_8_9 + 22 x_8_9 + 22 x_8_9 + 22 x_8_9 + 22 x_8_9
   + 22 x_8_9 + 22 x_8_9 + 22 x_8_9 + 22 x_8_9 + 22 x_8_9 + 22 x_8_9
   + 22 x_8_9 + 22 x_8_9 + 22 x_8_9 + 22 x_8_9 + 22 x_8_9 + 22 x_8_9
   + 22 x_8_9 + 22 x_8_9 + 22 x_8_9 + 22 x_8_9 + 22 x_8_9 + 22 x_8_9
   + 22 x_8_9 + 22 x_8_9 + 22 x_8_9 + 22 x_8_9 + 22 x_8_9 + 22 x_8_9
   + 22 x_8_9 + 22 x_8_9 + 22 x_8_9 + 22 x_8_9 + 22 x_8_9 + 22 x_8_9
   + 22 x_8_9 + 22 x_8_9 + 22 x_8_9 + 22 x_8_9 + 22 x_8_9 + 22 x_8_9
   + 22 x_8_9 + 22 x_8_9 + 22 x_8_9 + 22 x_8_9 + 22 x_8_9 + 22 x_8_9
   + 22 x_8_9 + 22 x_8_9 + 22 x_8_9 + 22 x_8_9 + 22 x_8_9 + 22 x_8_9
   + 22 x_8_9 + 22 x_8_9 + 22 x_8_9 + 22 x_8_9 + 22 x_8_9 + 22 x_8_9
   + 22 x_8_9 + 22 x_8_9 + 22 x_8_9 + 22 x_8_9 + 22 x_8_9 + 22 x_8_9
   + 22 x_8_9 + 22 x_8_9 + 22 x_8_9 + 22 x_8_9 + 22 x_8_9 + 22 x_8_9
   + 22 x_8_9 + 22 x_8_9 + 22 x_8_9 + 22 x_8_9 + 22 x_8_9 + 22 x_8_9
   + 158 Constant
Subject To
 c_0: y_0 = 1
 c_1_0: y_0 >= 1
 c_1_1: y_1 >= 1
 c_1_2: y_2 >= 1
 c_1_3: y_3 >= 1
 c_1_4: y_4 + y_5 >= 1
 c_1_5: y_4 + y_5 >= 1
 c_1_6: y_6 >= 1
 c_1_7: y_7 >= 1
 c_1_8: y_8 >= 1
 c_1_9: y_9 >= 1
 c_2_0: - 2 y_0 + x_0_1 + x_0_2 + x_0_3 + x_0_4 + x_0_5 + x_0_6 + x_0_8
   + x_0_9 = 0
 c_2_1: - 2 y_1 + x_0_1 + x_1_2 + x_1_3 + x_1_4 + x_1_7 + x_1_9 = 0
 c_2_2: - 2 y_2 + x_0_2 + x_1_2 + x_2_3 + x_2_4 + x_2_5 + x_2_7 + x_2_8
   + x_2_9 = 0
 c_2_3: - 2 y_3 + x_0_3 + x_1_3 + x_2_3 + x_3_6 + x_3_7 + x_3_8 + x_3_9
   = 0
 c_2_4: - 2 y_4 + x_0_4 + x_1_4 + x_2_4 + x_4_5 + x_4_6 + x_4_9 = 0
 c_2_5: - 2 y_5 + x_0_5 + x_2_5 + x_4_5 + x_5_6 + x_5_8 = 0
 c_2_6: - 2 y_6 + x_0_6 + x_3_6 + x_4_6 + x_5_6 + x_6_7 + x_6_9 = 0
 c_2_7: - 2 y_7 + x_1_7 + x_2_7 + x_3_7 + x_6_7 = 0
 c_2_8: - 2 y_8 + x_0_8 + x_2_8 + x_3_8 + x_5_8 + 281 x_8_9 = 0
 c_2_9: - 2 y_9 + x_0_9 + x_1_9 + x_2_9 + x_3_9 + x_4_9 + x_6_9 + 281 x_8_9
   = 0
Bounds
 Constant = 1
Binaries
 y_0 y_1 y_2 y_3 y_4 y_5 y_6 y_7 y_8 y_9 x_0_1 x_0_2 x_0_3 x_0_4 x_0_5
 x_0_6 x_0_8 x_0_9 x_1_2 x_1_3 x_1_4 x_1_7 x_1_9 x_2_3 x_2_4 x_2_5 x_2_7
 x_2_8 x_2_9 x_3_6 x_3_7 x_3_8 x_3_9 x_4_5 x_4_6 x_4_9 x_5_6 x_5_8 x_6_7
 x_6_9 x_8_9 x_8_9 x_8_9 x_8_9 x_8_9 x_8_9 x_8_9 x_8_9 x_8_9 x_8_9 x_8_9
 x_8_9 x_8_9 x_8_9 x_8_9 x_8_9 x_8_9 x_8_9 x_8_9 x_8_9 x_8_9 x_8_9 x_8_9
 x_8_9 x_8_9 x_8_9 x_8_9 x_8_9 x_8_9 x_8_9 x_8_9 x_8_9 x_8_9 x_8_9 x_8_9
 x_8_9 x_8_9 x_8_9 x_8_9 x_8_9 x_8_9 x_8_9 x_8_9 x_8_9 x_8_9 x_8_9 x_8_9
 x_8_9 x_8_9 x_8_9 x_8_9 x_8_9 x_8_9 x_8_9 x_8_9 x_8_9 x_8_9 x_8_9 x_8_9
 x_8_9 x_8_9 x_8_9 x_8_9 x_8_9 x_8_9 x_8_9 x_8_9 x_8_9 x_8_9 x_8_9 x_8_9
 x_8_9 x_8_9 x_8_9 x_8_9 x_8_9 x_8_9 x_8_9 x_8_9 x_8_9 x_8_9 x_8_9 x_8_9
 x_8_9 x_8_9 x_8_9 x_8_9 x_8_9 x_8_9 x_8_9 x_8_9 x_8_9 x_8_9 x_8_9 x_8_9
 x_8_9 x_8_9 x_8_9 x_8_9 x_8_9 x_8_9 x_8_9 x_8_9 x_8_9 x_8_9 x_8_9 x_8_9
 x_8_9 x_8_9 x_8_9 x_8_9 x_8_9 x_8_9 x_8_9 x_8_9 x_8_9 x_8_9 x_8_9 x_8_9
 x_8_9 x_8_9 x_8_9 x_8_9 x_8_9 x_8_9 x_8_9 x_8_9 x_8_9 x_8_9 x_8_9 x_8_9
 x_8_9 x_8_9 x_8_9 x_8_9 x_8_9 x_8_9 x_8_9 x_8_9 x_8_9 x_8_9 x_8_9 x_8_9
 x_8_9 x_8_9 x_8_9 x_8_9 x_8_9 x_8_9 x_8_9 x_8_9 x_8_9 x_8_9 x_8_9 x_8_9
 x_8_9 x_8_9 x_8_9 x_8_9 x_8_9 x_8_9 x_8_9 x_8_9 x_8_9 x_8_9 x_8_9 x_8_9
 x_8_9 x_8_9 x_8_9 x_8_9 x_8_9 x_8_9 x_8_9 x_8_9 x_8_9 x_8_9 x_8_9 x_8_9
 x_8_9 x_8_9 x_8_9 x_8_9 x_8_9 x_8_9 x_8_9 x_8_9 x_8_9 x_8_9 x_8_9 x_8_9
 x_8_9 x_8_9 x_8_9 x_8_9 x_8_9 x_8_9 x_8_9 x_8_9 x_8_9 x_8_9 x_8_9 x_8_9
 x_8_9 x_8_9 x_8_9 x_8_9 x_8_9 x_8_9 x_8_9 x_8_9 x_8_9 x_8_9 x_8_9 x_8_9
 x_8_9 x_8_9 x_8_9 x_8_9 x_8_9 x_8_9 x_8_9 x_8_9 x_8_9 x_8_9 x_8_9 x_8_9
 x_8_9 x_8_9 x_8_9 x_8_9 x_8_9 x_8_9 x_8_9 x_8_9 x_8_9 x_8_9 x_8_9 x_8_9
 x_8_9 x_8_9 x_8_9 x_8_9 x_8_9 x_8_9 x_8_9 x_8_9 x_8_9 x_8_9 x_8_9 x_8_9
 x_8_9 x_8_9 x_8_9 x_8_9 x_8_9 x_8_9 x_8_9 x_8_9 x_8_9 x_8_9 x_8_9 x_8_9
 x_8_9 x_8_9 x_8_9 x_8_9 x_8_9 x_8_9 x_8_9 x_8_9 x_8_9 x_8_9 x_8_9 x_8_9
 x_8_9 x_8_9 x_8_9 x_8_9 x_8_9 x_8_9
End
